59120.9
139 138 137 136 135 134 132 133 228 229 230 231 232 240 233 234 235 236 237 238 239 256 253 254 255 263 264 265 266 267 273 274 275 276 277 278 280 279 1146 1147 1145 1144 1153 1132 1133 1131 1130 1129 1123 1124 1125 1126 1092 1093 1094 1091 1090 1089 1321 1322 1323 1088 1095 1096 1097 1098 1118 1119 1120 1121 1122 1115 1116 1117 1099 1110 1111 1112 1113 1114 304 305 306 307 308 309 310 311 312 1105 1106 1107 1108 1109 1100 1101 1102 1103 1104 1087 1085 1086 1080 1079 1078 1077 1076 319 1073 1074 1075 1081 1082 1083 1084 332 333 334 331 330 329 328 1072 1071 1070 326 327 325 324 322 323 321 320 317 318 316 315 314 313 303 302 300 301 299 298 297 296 295 294 292 293 291 289 288 290 287 286 285 284 283 282 281 272 271 270 269 268 262 261 260 259 258 257 252 251 250 249 242 243 241 248 247 246 245 244 126 131 130 129 128 127 125 124 123 121 122 120 119 114 115 116 118 117 113 112 111 110 109 108 107 106 105 104 92 91 90 93 94 103 102 101 100 99 98 97 96 95 88 89 84 83 82 80 81 77 78 79 85 86 87 70 71 72 73 74 75 76 68 69 67 66 65 64 63 59 58 57 56 55 54 53 52 51 60 61 62 49 50 45 44 43 41 42 40 39 38 46 47 48 31 32 33 34 35 36 37 25 26 27 28 29 30 19 18 17 16 15 14 20 21 22 23 24 12 13 11 10 9 8 7 6 5 1807 1808 4 3 2 1 0 1816 1815 1814 1813 1812 1811 1810 1809 1782 1783 1781 1784 1779 1780 1778 1777 1775 1774 1776 1536 1534 1535 1539 1538 1537 1543 1544 1531 1545 1546 1547 1542 1541 1540 1785 1786 1787 1802 1803 1804 1805 1806 1799 1800 1801 1791 1790 1789 1788 1792 1793 1794 1795 1796 1797 1798 172 173 174 175 176 177 178 179 180 181 171 170 169 168 167 185 184 183 182 186 187 188 189 164 165 166 163 162 161 190 191 192 195 194 193 160 159 158 157 155 154 151 152 153 203 202 156 198 197 196 201 200 199 208 207 206 205 204 150 149 148 147 146 212 211 210 209 216 215 214 213 145 144 143 142 141 140 217 218 219 1688 1689 1690 1691 1692 1693 1694 1695 1696 1697 1698 1699 1700 1710 1709 1708 1707 1706 1705 1704 1703 1702 1701 1713 1712 1711 1714 1715 1716 1717 1718 1723 1722 1721 1720 1719 1724 1725 1726 1727 1728 1729 1730 1731 1732 1733 1734 1735 1736 1737 1738 1739 1749 1748 1747 1746 1745 1744 1743 1742 1741 1740 1752 1751 1750 1753 1754 1755 1756 1757 1759 1758 1560 1559 1558 1760 1761 1762 1766 1763 1765 1764 1771 1772 1773 1553 1554 1768 1770 1767 1769 1555 1556 1557 1550 1552 1551 1548 1549 1529 1528 1527 1530 1533 1532 1524 1523 1525 1526 1522 1521 1520 1519 1517 1518 1516 1512 1513 1515 1514 1506 1505 1504 1503 1502 1501 1500 1490 1488 1489 1486 1487 1485 1484 1483 1481 1482 1480 1478 1479 1477 1476 1474 1473 1475 1472 1470 1469 1471 1468 1467 1448 1454 1449 1453 1452 1450 1455 1456 1447 1466 1465 1464 1463 1462 1461 1459 1458 1457 1446 1445 1444 1443 1442 1441 1440 1439 1438 1437 1436 1435 469 483 484 480 482 481 479 478 476 475 470 471 472 502 501 473 474 477 494 493 490 489 485 1451 486 487 488 491 492 495 497 498 496 499 500 503 505 504 506 509 507 508 510 513 511 512 514 515 516 526 525 524 522 521 519 518 517 553 556 557 558 560 559 555 554 571 572 573 570 569 568 567 566 565 562 564 561 563 547 550 551 552 520 549 529 527 523 528 531 532 534 530 548 546 545 544 543 537 542 541 535 533 536 540 539 538 718 719 720 721 717 716 715 714 713 711 712 729 730 731 728 727 732 725 726 722 724 723 736 733 735 734 742 737 738 741 740 739 749 748 747 746 745 744 743 758 757 756 755 754 750 753 752 751 767 761 760 759 766 765 764 763 762 768 769 770 773 774 775 790 771 772 791 792 793 794 795 796 797 798 807 806 805 808 809 810 811 812 813 819 820 821 822 823 831 830 829 828 827 826 825 837 836 835 834 833 832 824 818 817 816 815 814 839 838 847 840 841 848 842 846 845 843 851 844 852 873 874 872 871 875 859 870 869 864 863 862 861 860 890 889 888 887 886 885 850 849 884 883 882 881 880 879 878 877 876 891 892 893 894 895 896 897 898 899 900 868 867 866 865 858 857 856 855 854 853 917 916 915 914 913 912 911 910 909 902 901 903 904 906 905 950 951 952 953 954 955 956 957 959 958 960 961 963 962 964 965 967 966 968 969 1057 1058 1060 1059 1062 1061 1063 1064 1066 1065 1067 1068 1069 337 336 335 339 341 351 352 355 354 353 350 342 340 338 343 344 345 346 347 348 349 1049 1050 1051 1052 1053 1054 1055 1056 1047 1046 1045 970 971 1044 1043 1042 1041 1048 1038 1037 1036 1040 1039 986 987 993 994 1020 997 995 992 991 996 1006 998 999 1017 1016 1010 1015 1018 1007 1019 1008 1009 1014 1013 1012 1011 648 649 650 651 652 1000 1001 1002 1003 1004 1005 990 989 988 985 984 983 982 973 972 974 975 976 977 978 981 980 979 942 941 940 939 938 937 936 949 948 947 946 945 944 935 943 922 923 924 925 934 933 932 907 908 931 930 929 928 927 926 921 920 919 918 804 803 802 801 800 799 669 668 667 666 665 664 663 661 660 659 658 657 656 655 654 653 673 674 662 670 671 672 675 676 677 678 634 635 636 633 632 631 630 682 681 680 679 781 780 779 778 777 776 789 788 787 786 785 784 783 782 683 687 686 688 685 684 693 695 694 696 697 698 699 700 692 691 690 689 701 702 703 704 705 706 708 707 606 607 608 609 610 605 604 603 602 710 709 601 600 599 598 597 596 595 582 583 581 584 579 580 577 578 575 576 574 463 464 465 466 467 462 461 460 459 588 587 586 585 594 593 592 591 590 589 458 457 613 614 615 616 612 611 617 618 619 620 621 622 623 624 625 626 627 628 629 637 638 639 640 641 642 643 644 645 647 646 424 425 426 427 428 429 430 423 418 417 416 415 414 413 412 1027 1026 1025 1024 1023 1022 1021 1035 1034 1033 1032 1031 1030 1029 1028 378 377 376 375 374 373 372 365 366 367 368 371 379 382 383 385 384 381 380 370 369 364 356 357 358 359 363 362 361 360 1342 1341 1340 1339 1338 1337 1336 1324 1325 1326 1327 1328 1329 1330 1331 1332 1370 1371 1372 1373 1374 1375 1376 1311 1312 1313 1314 1315 1316 1333 1334 1335 1320 1319 1318 1317 1310 1309 1308 1307 1306 1305 1304 1303 1127 1128 1134 1135 1136 1141 1142 1143 1137 1138 1139 1140 1298 1299 1300 1301 1302 1379 1297 1296 1295 1294 1293 1292 1291 1290 1289 1288 1287 1278 1279 1280 1281 1380 1381 1382 1378 1377 1361 1362 1363 1364 1365 1366 1367 1368 1369 1343 1344 1345 1346 1347 1357 1356 1355 1354 1353 1352 1351 1350 1349 1348 386 387 388 389 390 393 392 391 406 407 408 405 403 404 402 401 399 400 398 394 395 397 396 411 410 409 419 420 421 422 436 435 434 433 432 431 437 438 439 440 441 442 443 446 445 444 452 453 454 456 455 451 450 449 448 447 1420 1419 1418 1426 1422 1421 468 1425 1424 1423 1434 1433 1432 1431 1226 1430 1429 1428 1427 1417 1416 1415 1414 1413 1412 1411 1410 1409 1408 1407 1406 1405 1404 1403 1402 1239 1238 1237 1236 1235 1234 1233 1232 1246 1247 1248 1245 1244 1231 1230 1243 1242 1241 1240 1228 1229 1227 1225 1224 1223 1222 1220 1219 1221 1460 1581 1580 1579 1578 1577 1576 1575 1492 1493 1565 1566 1567 1563 1564 1494 1495 1496 1491 1499 1498 1497 1507 1508 1509 1510 1511 1562 1568 1561 1569 1570 1571 1572 1573 1574 1588 1589 1585 1584 1583 1582 1590 1591 1592 1593 1594 1586 1587 1598 1597 1596 1595 1214 1215 1218 1217 1216 1209 1210 1211 1212 1213 1602 1603 1604 1605 1606 1607 1608 1609 1610 1611 1601 1600 1599 1197 1208 1207 1206 1205 1204 1250 1249 1253 1252 1251 1203 1202 1201 1200 1199 1198 1193 1194 1195 1196 1254 1255 1256 1257 1258 1259 1261 1260 1397 1398 1399 1400 1401 1394 1393 1392 1358 1359 1360 1391 1390 1389 1395 1396 1386 1387 1388 1385 1384 1383 1282 1283 1284 1285 1286 1277 1276 1275 1274 1273 1272 1271 1270 1269 1263 1262 1264 1265 1266 1267 1268 1192 1191 1189 1190 1182 1183 1188 1187 1184 1619 1620 1621 1628 1623 1622 1185 1186 1618 1617 1616 1613 1612 1614 1615 1624 1625 1627 1629 1626 1630 1632 1633 1631 1634 1636 1637 1635 1638 1639 1643 1642 1640 1641 1171 1170 1169 1172 1175 1176 1179 1181 1180 1178 1177 1174 1173 1168 1161 1162 1167 1165 1650 1648 1651 1649 1166 1164 1163 1160 1158 1159 1157 1156 1155 1154 1152 1151 1148 1149 1150 1665 1664 1666 1667 1669 1668 1663 1661 1658 1657 1656 1652 1647 1653 1654 1655 1659 1660 1662 1670 1671 1672 1673 1674 1646 1645 1644 1678 1677 1676 1687 1675 1679 1680 1681 1682 1686 1685 1683 1684 226 227 225 224 220 221 222 223 